
Gurobi 6.5.2 (win64) logging started 08/12/16 04:04:43

Optimize a model with 10362 rows, 7653 columns and 34155 nonzeros
Coefficient statistics:
  Matrix range    [1e+00, 1e+00]
  Objective range [3e+01, 3e+03]
  Bounds range    [1e+00, 1e+00]
  RHS range       [1e+00, 1e+00]
Found heuristic solution: objective 0
Variable types: 0 continuous, 7653 integer (7653 binary)

Root relaxation: objective -2.149571e+05, 2639 iterations, 0.04 seconds

    Nodes    |    Current Node    |     Objective Bounds      |     Work
 Expl Unexpl |  Obj  Depth IntInf | Incumbent    BestBd   Gap | It/Node Time

     0     0 -214957.14    0   16    0.00000 -214957.14      -     -    0s
H    0     0                    -213959.9855 -214957.14  0.47%     -    0s
H    0     0                    -214863.9131 -214957.14  0.04%     -    0s
*    0     0               0    -214936.9131 -214936.91  0.00%     -    0s

Cutting planes:
  Gomory: 2

Explored 0 nodes (3084 simplex iterations) in 0.28 seconds
Thread count was 12 (of 12 available processors)

Optimal solution found (tolerance 1.00e-04)
Best objective -2.149369131139e+05, best bound -2.149369131139e+05, gap 0.0000%
Obj: -214936.9131138857